cases/pglib-opf/pglib_opf_case5_pjm.m
ipopt
ACT
[info | PowerModels]: extending matpower format with data: areas 1x3
[info | PowerModels]: removing 1 cost terms from generator 4: [4000.0, 0.0]
[info | PowerModels]: removing 1 cost terms from generator 1: [1400.0, 0.0]
[info | PowerModels]: removing 1 cost terms from generator 5: [1000.0, 0.0]
[info | PowerModels]: removing 1 cost terms from generator 2: [1500.0, 0.0]
[info | PowerModels]: removing 1 cost terms from generator 3: [3000.0, 0.0]

******************************************************************************
This program contains Ipopt, a library for large-scale nonlinear optimization.
 Ipopt is released as open source code under the Eclipse Public License (EPL).
         For more information visit http://projects.coin-or.org/Ipopt
******************************************************************************

This is Ipopt version 3.13.2, running with linear solver mumps.
NOTE: Other linear solvers might be more efficient (see Ipopt documentation).

Number of nonzeros in equality constraint Jacobian...:      179
Number of nonzeros in inequality constraint Jacobian.:       48
Number of nonzeros in Lagrangian Hessian.............:       78

Total number of variables............................:       56
                     variables with only lower bounds:        0
                variables with lower and upper bounds:       51
                     variables with only upper bounds:        0
Total number of equality constraints.................:       47
Total number of inequality constraints...............:       24
        inequality constraints with only lower bounds:        6
   inequality constraints with lower and upper bounds:        0
        inequality constraints with only upper bounds:       18

iter    objective    inf_pr   inf_du lg(mu)  ||d||  lg(rg) alpha_du alpha_pr  ls
   0  1.0059989e+02 3.99e+00 2.88e+01  -1.0 0.00e+00    -  0.00e+00 0.00e+00   0
   1  8.3045399e+03 2.46e+00 1.77e+02  -1.0 2.78e+00    -  4.11e-03 3.83e-01h  1
   2  6.7149705e+03 2.35e+00 1.69e+02  -1.0 1.61e+01    -  7.36e-02 4.43e-02f  1
   3  6.6655812e+03 2.30e+00 1.65e+02  -1.0 1.30e+01    -  4.94e-01 2.41e-02f  1
   4  6.5717989e+03 2.04e+00 1.45e+02  -1.0 1.29e+01    -  3.67e-01 1.12e-01f  2
   5  6.8300300e+03 1.79e+00 1.25e+02  -1.0 1.23e+01    -  8.71e-01 1.21e-01h  2
   6  8.8548400e+03 1.08e+00 6.38e+01  -1.0 9.14e+00    -  5.88e-01 4.00e-01h  1
   7  1.0564118e+04 8.62e-01 5.26e+01  -1.0 2.94e+00    -  5.09e-01 1.99e-01h  1
   8  1.7294855e+04 3.86e-02 3.23e+01  -1.0 2.42e+00    -  7.68e-01 9.55e-01h  1
   9  1.7575811e+04 7.06e-04 2.20e+00  -1.0 2.14e+00    -  1.00e+00 1.00e+00h  1
iter    objective    inf_pr   inf_du lg(mu)  ||d||  lg(rg) alpha_du alpha_pr  ls
  10  1.7594632e+04 1.03e-04 3.54e-01  -1.0 5.66e-01    -  1.00e+00 1.00e+00h  1
  11  1.7566523e+04 6.81e-05 2.46e+00  -1.7 5.91e-01    -  1.00e+00 1.00e+00h  1
  12  1.7561034e+04 1.60e-04 3.29e+00  -1.7 2.22e-01    -  1.00e+00 1.00e+00h  1
  13  1.7561517e+04 7.01e-07 1.39e-02  -1.7 1.03e-02    -  1.00e+00 1.00e+00h  1
  14  1.7552269e+04 1.21e-04 2.38e+00  -3.8 1.38e-01    -  8.61e-01 9.14e-01f  1
  15  1.7551947e+04 1.40e-05 2.83e-01  -3.8 2.73e-02    -  1.00e+00 9.89e-01h  1
  16  1.7551939e+04 1.91e-09 1.49e-02  -3.8 6.04e-03    -  1.00e+00 1.00e+00f  1
  17  1.7551940e+04 1.58e-12 5.50e-05  -3.8 1.48e-04    -  1.00e+00 1.00e+00h  1
  18  1.7551892e+04 1.73e-07 2.05e-01  -5.7 2.48e-03    -  1.00e+00 9.68e-01f  1
  19  1.7551891e+04 2.90e-12 3.00e-05  -5.7 2.36e-04    -  1.00e+00 1.00e+00f  1
iter    objective    inf_pr   inf_du lg(mu)  ||d||  lg(rg) alpha_du alpha_pr  ls
  20  1.7551891e+04 2.96e-14 6.15e-10  -5.7 5.05e-07    -  1.00e+00 1.00e+00h  1
  21  1.7551891e+04 5.99e-12 3.02e-07  -8.6 3.51e-05    -  1.00e+00 1.00e+00f  1
  22  1.7551891e+04 4.26e-14 1.54e-12  -8.6 3.34e-08    -  1.00e+00 1.00e+00h  1

Number of Iterations....: 22

                                   (scaled)                 (unscaled)
Objective...............:   4.3879727098644281e+02    1.7551890839457712e+04
Dual infeasibility......:   1.5370078486894407e-12    6.1480313947577627e-11
Constraint violation....:   2.7521807055563839e-14    4.2577052994374753e-14
Complementarity.........:   2.5059076181285525e-09    1.0023630472514209e-07
Overall NLP error.......:   2.5059076181285525e-09    1.0023630472514209e-07


Number of objective function evaluations             = 29
Number of objective gradient evaluations             = 23
Number of equality constraint evaluations            = 29
Number of inequality constraint evaluations          = 29
Number of equality constraint Jacobian evaluations   = 23
Number of inequality constraint Jacobian evaluations = 23
Number of Lagrangian Hessian evaluations             = 22
Total CPU secs in IPOPT (w/o function evaluations)   =      1.282
Total CPU secs in NLP function evaluations           =      2.306

EXIT: Optimal Solution Found.
Time to Solution........:4.3500940799713135
